9
0 20 30 31 28 40 23 88 11
30  0 10 14 20 44 32 99 11
40 20  0 10 22 50 12 12 11
41 24 20  0 14 42 11 23 11
38 30 32 24  0 28 23 44 11
50 54 60 52 38  0 45 21 11
12 22 33 44 55 66 0 32 11
11 22 31 23 52 53 43 0 11
11 11 11 11 11 11 11 11 0